presolving:
(round 1, fast)       7434 del vars, 13344 del conss, 0 add conss, 12237 chg bounds, 0 chg sides, 0 chg coeffs, 166 upgd conss, 0 impls, 2478 clqs
(round 2, fast)       16076 del vars, 14567 del conss, 0 add conss, 12237 chg bounds, 0 chg sides, 0 chg coeffs, 166 upgd conss, 0 impls, 2478 clqs
(round 3, exhaustive) 16076 del vars, 14809 del conss, 0 add conss, 12237 chg bounds, 0 chg sides, 0 chg coeffs, 166 upgd conss, 0 impls, 2478 clqs
(round 4, exhaustive) 16076 del vars, 14809 del conss, 0 add conss, 12237 chg bounds, 0 chg sides, 0 chg coeffs, 2644 upgd conss, 0 impls, 2478 clqs
(round 5, exhaustive) 16076 del vars, 15181 del conss, 3279 add conss, 12485 chg bounds, 0 chg sides, 124 chg coeffs, 19039 upgd conss, 0 impls, 2478 clqs
(round 6, fast)       19727 del vars, 18460 del conss, 3279 add conss, 12485 chg bounds, 0 chg sides, 124 chg coeffs, 19039 upgd conss, 0 impls, 9036 clqs
(round 7, exhaustive) 19727 del vars, 18460 del conss, 3279 add conss, 12485 chg bounds, 0 chg sides, 124 chg coeffs, 32155 upgd conss, 0 impls, 9036 clqs
(round 8, fast)       19727 del vars, 18460 del conss, 3279 add conss, 12485 chg bounds, 26232 chg sides, 13240 chg coeffs, 32155 upgd conss, 0 impls, 9036 clqs
   (9.2s) probing: 1000/5686 (17.6%) - 0 fixings, 0 aggregations, 755235 implications, 0 bound changes
   (9.2s) probing: 1001/5686 (17.6%) - 0 fixings, 0 aggregations, 755500 implications, 0 bound changes
   (9.2s) probing aborted: 1000/1000 successive useless probings
   (9.2s) symmetry computation started: requiring (bin +, int -, cont +), (fixed: bin -, int +, cont -)
   (9.2s) no symmetry present
   (9.2s) symmetry computation started: requiring (bin +, int +, cont +), (fixed: bin -, int -, cont -)
   (9.3s) no symmetry present
presolving (9 rounds: 9 fast, 5 medium, 5 exhaustive):
 19727 deleted vars, 18460 deleted constraints, 3279 added constraints, 12485 tightened bounds, 0 added holes, 26232 changed sides, 13240 changed coefficients
 457500 implications, 127257 cliques
presolved problem has 12244 variables (2407 bin, 6558 int, 3279 impl, 0 cont) and 18956 constraints
  13116 constraints of type <varbound>
   2478 constraints of type <setppc>
   3279 constraints of type <and>
     83 constraints of type <linear>
Presolving Time: 9.10

 time | node  | left  |LP iter|LP it/n|mem/heur|mdpt |vars |cons |rows |cuts |sepa|confs|strbr|  dualbound   | primalbound  |  gap   | compl. 
p 9.5s|     1 |     0 |     0 |     - |  clique|   0 |  12k|  18k|  22k|   0 |  0 |   0 |   0 | 0.000000e+00 | 8.429930e+05 |    Inf | unknown
p10.0s|     1 |     0 |     0 |     - | vbounds|   0 |  12k|  18k|  22k|   0 |  0 |   0 |   0 | 0.000000e+00 | 5.598865e+04 |    Inf | unknown
 10.4s|     1 |     0 |   695 |     - |   299M |   0 |  12k|  18k|  22k|   0 |  0 |   1 |   0 | 3.326163e+04 | 5.598865e+04 |  68.33%| unknown
 17.7s|     1 |     0 |   757 |     - |   307M |   0 |  12k|  18k|  22k|   1 |  1 |   1 |   0 | 3.332830e+04 | 5.598865e+04 |  67.99%| unknown
 19.2s|     1 |     0 |   904 |     - |   312M |   0 |  12k|  18k|  22k|   3 |  2 |   1 |   0 | 3.356908e+04 | 5.598865e+04 |  66.79%| unknown
 21.1s|     1 |     0 |   998 |     - |   319M |   0 |  12k|  18k|  22k|   5 |  3 |   1 |   0 | 3.369991e+04 | 5.598865e+04 |  66.14%| unknown
 22.4s|     1 |     0 |  1096 |     - |   329M |   0 |  12k|  18k|  22k|   7 |  4 |   1 |   0 | 3.377881e+04 | 5.598865e+04 |  65.75%| unknown
 23.8s|     1 |     0 |  1155 |     - |   343M |   0 |  12k|  18k|  22k|   9 |  5 |   1 |   0 | 3.382084e+04 | 5.598865e+04 |  65.54%| unknown
 26.7s|     1 |     0 |  1301 |     - |   355M |   0 |  12k|  18k|  22k|  11 |  6 |   1 |   0 | 3.387416e+04 | 5.598865e+04 |  65.28%| unknown
 30.1s|     1 |     0 |  1360 |     - |   367M |   0 |  12k|  18k|  22k|  13 |  7 |   1 |   0 | 3.389518e+04 | 5.598865e+04 |  65.18%| unknown
 32.5s|     1 |     0 |  1478 |     - |   381M |   0 |  12k|  18k|  22k|  15 |  8 |   1 |   0 | 3.396207e+04 | 5.598865e+04 |  64.86%| unknown
 34.6s|     1 |     0 |  1560 |     - |   394M |   0 |  12k|  18k|  22k|  17 |  9 |   1 |   0 | 3.398799e+04 | 5.598865e+04 |  64.73%| unknown
 35.4s|     1 |     0 |  1610 |     - |   397M |   0 |  12k|  18k|  22k|  18 | 10 |   2 |   0 | 3.399104e+04 | 5.598865e+04 |  64.72%| unknown
 35.6s|     1 |     0 |  1696 |     - |   399M |   0 |  12k|  18k|  22k|  20 | 11 |   2 |   0 | 3.400717e+04 | 5.598865e+04 |  64.64%| unknown
 35.9s|     1 |     0 |  1754 |     - |   401M |   0 |  12k|  18k|  22k|  21 | 12 |   2 |   0 | 3.401452e+04 | 5.598865e+04 |  64.60%| unknown
 time | node  | left  |LP iter|LP it/n|mem/heur|mdpt |vars |cons |rows |cuts |sepa|confs|strbr|  dualbound   | primalbound  |  gap   | compl. 
 36.1s|     1 |     0 |  1807 |     - |   404M |   0 |  12k|  18k|  22k|  22 | 13 |   2 |   0 | 3.402322e+04 | 5.598865e+04 |  64.56%| unknown
 36.4s|     1 |     0 |  1857 |     - |   406M |   0 |  12k|  18k|  22k|  24 | 14 |   2 |   0 | 3.402942e+04 | 5.598865e+04 |  64.53%| unknown
 36.6s|     1 |     0 |  1909 |     - |   409M |   0 |  12k|  18k|  22k|  25 | 15 |   2 |   0 | 3.403713e+04 | 5.598865e+04 |  64.49%| unknown
 36.9s|     1 |     0 |  1964 |     - |   411M |   0 |  12k|  18k|  22k|  26 | 16 |   2 |   0 | 3.404444e+04 | 5.598865e+04 |  64.46%| unknown
 37.1s|     1 |     0 |  1993 |     - |   414M |   0 |  12k|  18k|  22k|  27 | 17 |   2 |   0 | 3.404635e+04 | 5.598865e+04 |  64.45%| unknown
 37.3s|     1 |     0 |  2015 |     - |   416M |   0 |  12k|  18k|  22k|  28 | 18 |   2 |   0 | 3.404831e+04 | 5.598865e+04 |  64.44%| unknown
 37.6s|     1 |     0 |  2043 |     - |   419M |   0 |  12k|  18k|  22k|  29 | 19 |   2 |   0 | 3.405021e+04 | 5.598865e+04 |  64.43%| unknown
 37.8s|     1 |     0 |  2063 |     - |   421M |   0 |  12k|  18k|  22k|  30 | 20 |   2 |   0 | 3.405068e+04 | 5.598865e+04 |  64.43%| unknown
d41.3s|     1 |     0 |  5119 |     - |farkasdi|   0 |  12k|  18k|  22k|   0 | 22 |   2 |   0 | 3.405068e+04 | 5.545546e+04 |  62.86%| unknown
o41.9s|     1 |     0 | 10113 |     - |feaspump|   0 |  12k|  18k|  22k|  30 | 22 |   2 |   0 | 3.405068e+04 | 4.715045e+04 |  38.47%| unknown
 43.0s|     1 |     0 | 11597 |     - |   427M |   0 |  12k|  18k|  22k|  30 | 22 |   2 |   0 | 3.405068e+04 | 4.715045e+04 |  38.47%| unknown
 50.4s|     1 |     2 | 11597 |     - |   427M |   0 |  12k|  18k|  22k|  30 | 24 |   2 |  29 | 3.435694e+04 | 4.715045e+04 |  37.24%| unknown
*50.9s|     2 |     1 | 12323 |10260.0 |strongbr|   1 |  12k|  18k|  22k|  30 |  1 |   2 |  30 | 3.435694e+04 | 3.747342e+04 |   9.07%| unknown
*51.5s|     2 |     1 | 12565 |10502.0 |strongbr|   1 |  12k|  18k|  22k|  30 |  5 |   8 |  36 | 3.435694e+04 | 3.739529e+04 |   8.84%| unknown
*54.8s|     5 |     0 | 13488 |2856.2 |strongbr|   2 |  12k|  16k|  24k|  30 |  2 |  15 |  65 | 3.474634e+04 | 3.726832e+04 |   7.26%|  85.69%

SCIP Status        : problem is solved [optimal solution found]
Solving Time (sec) : 57.47
Solving Nodes      : 5
Primal Bound       : +3.72683207613885e+04 (7 solutions)
Dual Bound         : +3.72683207613885e+04
Gap                : 0.00 %
Solve Status: optimal
Solve Time: 57.50 seconds
Objective Value: 37268.32
